NAME: random-71-2919
TYPE: TSP
COMMENT: size=71 seed=2919
DIMENSION: 144
EDGE_WEIGHT_TYPE: EUC_2D
NODE_COORD_SECTION
+0 633 30
-0 633 30
+1 585 535
-1 297 175
+2 883 555
-2 367 783
+3 173 898
-3 121 995
+4 40 717
-4 967 263
+5 411 723
-5 378 678
+6 197 341
-6 585 6
+7 446 103
-7 64 166
+8 926 87
-8 634 901
+9 339 2
-9 977 797
+10 186 972
-10 644 31
+11 768 491
-11 111 75
+12 274 452
-12 580 689
+13 634 642
-13 836 868
+14 216 984
-14 579 985
+15 438 670
-15 502 699
+16 759 580
-16 791 144
+17 930 322
-17 595 252
+18 789 398
-18 673 381
+19 235 122
-19 941 355
+20 533 231
-20 289 596
+21 625 666
-21 92 577
+22 170 191
-22 812 619
+23 567 352
-23 13 711
+24 310 671
-24 980 172
+25 923 188
-25 263 492
+26 47 806
-26 389 731
+27 866 391
-27 835 241
+28 809 625
-28 84 183
+29 996 894
-29 950 768
+30 485 636
-30 710 129
+31 539 655
-31 8 170
+32 898 956
-32 615 194
+33 972 752
-33 351 742
+34 379 118
-34 338 223
+35 76 853
-35 141 879
+36 214 139
-36 949 745
+37 320 539
-37 230 227
+38 856 960
-38 869 45
+39 848 493
-39 37 226
+40 256 684
-40 155 959
+41 668 129
-41 312 778
+42 399 287
-42 540 591
+43 554 191
-43 707 508
+44 964 203
-44 495 430
+45 875 383
-45 401 148
+46 399 499
-46 823 824
+47 227 716
-47 711 620
+48 921 143
-48 93 943
+49 879 747
-49 547 359
+50 119 402
-50 735 29
+51 800 917
-51 233 180
+52 64 267
-52 306 667
+53 427 880
-53 939 973
+54 513 349
-54 604 790
+55 723 488
-55 661 214
+56 819 172
-56 850 659
+57 410 894
-57 399 381
+58 597 614
-58 687 202
+59 70 38
-59 480 917
+60 189 44
-60 237 976
+61 942 139
-61 592 396
+62 351 236
-62 989 28
+63 273 662
-63 912 538
+64 733 847
-64 436 539
+65 418 779
-65 346 434
+66 941 398
-66 898 859
+67 611 157
-67 310 520
+68 161 369
-68 376 280
+69 763 640
-69 699 369
+70 742 277
-70 453 553
+71 512 515
-71 906 921
PRECEDENCE_SECTION
+0 -0
+1 -1
+2 -2
+3 -3
+4 -4
+5 -5
+6 -6
+7 -7
+8 -8
+9 -9
+10 -10
+11 -11
+12 -12
+13 -13
+14 -14
+15 -15
+16 -16
+17 -17
+18 -18
+19 -19
+20 -20
+21 -21
+22 -22
+23 -23
+24 -24
+25 -25
+26 -26
+27 -27
+28 -28
+29 -29
+30 -30
+31 -31
+32 -32
+33 -33
+34 -34
+35 -35
+36 -36
+37 -37
+38 -38
+39 -39
+40 -40
+41 -41
+42 -42
+43 -43
+44 -44
+45 -45
+46 -46
+47 -47
+48 -48
+49 -49
+50 -50
+51 -51
+52 -52
+53 -53
+54 -54
+55 -55
+56 -56
+57 -57
+58 -58
+59 -59
+60 -60
+61 -61
+62 -62
+63 -63
+64 -64
+65 -65
+66 -66
+67 -67
+68 -68
+69 -69
+70 -70
+71 -71
EOF
